
Gurobi 6.5.2 (linux64) logging started Wed Mar 15 13:00:18 2017


Gurobi 6.5.2 (linux64) logging started Wed Mar 15 13:00:18 2017

Optimize a model with 401 rows, 10150 columns and 20303 nonzeros
Coefficient statistics:
  Matrix range    [1e+00, 2e+00]
  Objective range [1e+00, 1e+02]
  Bounds range    [1e+00, 1e+00]
  RHS range       [1e+00, 1e+00]
Presolve removed 200 rows and 198 columns
Presolve time: 0.04s
Presolved: 201 rows, 9952 columns, 19905 nonzeros
Variable types: 0 continuous, 9952 integer (9952 binary)

Root relaxation: objective 1.431500e+03, 267 iterations, 0.01 seconds

    Nodes    |    Current Node    |     Objective Bounds      |     Work
 Expl Unexpl |  Obj  Depth IntInf | Incumbent    BestBd   Gap | It/Node Time

     0     0 1431.50000    0   22          - 1431.50000      -     -    0s
     0     0 1433.50000    0   16          - 1433.50000      -     -    0s
     0     0 1435.00000    0   35          - 1435.00000      -     -    0s
     0     0 1435.00000    0   16          - 1435.00000      -     -    0s
     0     0 1435.00000    0   16          - 1435.00000      -     -    0s
     0     2 1435.00000    0   16          - 1435.00000      -     -    0s
  2386  2135 1466.00000  116    -          - 1435.50000      -   6.9    5s

Cutting planes:
  Gomory: 4
  MIR: 2
  Flow cover: 2
  Zero half: 18
  Lazy constraints: 13

Explored 3165 nodes (24699 simplex iterations) in 10.01 seconds
Thread count was 8 (of 8 available processors)

Time limit reached
Best objective -, best bound 1.436000000000e+03, gap -
